(set-logic HORN)
(set-info :source |
    Benchmark: C_VC
    Output by Princess (http://www.philipp.ruemmer.org/princess.shtml)
|)
(set-info :status sat)
(declare-fun inv_main10 (Int Int) Bool)
(declare-fun inv_main11 (Int Int) Bool)
(declare-fun inv_main4 (Int Int) Bool)
(assert (forall ((var0 Int) (var1 Int)) (inv_main4 var1 var0)))
(assert (forall ((var0 Int) (var1 Int) (var2 Int)) (or (not (and (inv_main4 var2 var1) (and (<= 0 var0) (<= 0 (+ 10 (* (- 1) var0)))))) (inv_main11 0 var0))))
(assert (forall ((var0 Int) (var1 Int)) (or (not (and (inv_main11 var1 var0) (<= 0 (+ (+ (* 1000000 var0) (* (- 1) var1)) (- 1))))) (inv_main11 (+ var1 var0) var0))))
(assert (forall ((var0 Int) (var1 Int)) (or (not (and (inv_main11 var1 var0) (not (<= 0 (+ (+ (* 1000000 var0) (* (- 1) var1)) (- 1)))))) (inv_main10 var1 var0))))
(assert (forall ((var0 Int) (var1 Int)) (not (and (inv_main10 var1 var0) (not (= var1 (* 1000000 var0)))))))
(check-sat)
